(set-logic QF_NRA)
; benchmark generated from python API
(set-info :status unknown)
(declare-fun v1y () Real)
(declare-fun oy () Real)
(declare-fun v1x () Real)
(declare-fun R2 () Real)
(declare-fun y1y () Real)
(declare-fun xy () Real)
(declare-fun y1x () Real)
(declare-fun xx () Real)
(declare-fun rho2 () Real)
(declare-fun y2y () Real)
(declare-fun y2x () Real)
(declare-fun y3y () Real)
(declare-fun y3x () Real)
(declare-fun y4y () Real)
(declare-fun y4x () Real)
(assert
 (let ((?x11 (* (- 1.0) v1x)))
 (let ((?x210 (* (- 1.0) R2)))
 (let ((?x139 (+ (+ (+ (+ (/ 1.0 4.0) (* oy oy)) (* v1x v1x)) (* v1y v1y)) ?x210)))
 (= (+ (+ ?x139 ?x11) (* (* (- 2.0) oy) v1y)) 0.0)))))
(assert
 (= (+ (+ (/ 1.0 4.0) (* oy oy)) (* (- 1.0) R2)) 0.0))
(assert
 (let ((?x118 (* (- 1.0) rho2)))
 (let ((?x410 (* y1y y1y)))
 (let ((?x197 (+ (+ (+ (+ (* xx xx) (* xy xy)) (* y1x y1x)) ?x410) ?x118)))
 (= (+ (+ ?x197 (* (* (- 2.0) xx) y1x)) (* (* (- 2.0) xy) y1y)) 0.0)))))
(assert
 (let ((?x118 (* (- 1.0) rho2)))
 (let ((?x466 (* y2y y2y)))
 (let ((?x337 (+ (+ (+ (+ (* xx xx) (* xy xy)) (* y2x y2x)) ?x466) ?x118)))
 (= (+ (+ ?x337 (* (* (- 2.0) xx) y2x)) (* (* (- 2.0) xy) y2y)) 0.0)))))
(assert
 (let ((?x118 (* (- 1.0) rho2)))
 (let ((?x195 (* y3y y3y)))
 (let ((?x62 (+ (+ (+ (+ (* xx xx) (* xy xy)) (* y3x y3x)) ?x195) ?x118)))
 (= (+ (+ ?x62 (* (* (- 2.0) xx) y3x)) (* (* (- 2.0) xy) y3y)) 0.0)))))
(assert
 (let ((?x118 (* (- 1.0) rho2)))
 (let ((?x571 (* y4y y4y)))
 (let ((?x140 (+ (+ (+ (+ (* xx xx) (* xy xy)) (* y4x y4x)) ?x571) ?x118)))
 (= (+ (+ ?x140 (* (* (- 2.0) xx) y4x)) (* (* (- 2.0) xy) y4y)) 0.0)))))
(assert
 (let ((?x89 (+ (+ (+ (+ (- (/ 1.0 4.0)) R2) xx) (* (- 1.0) (* oy oy))) (* (- 1.0) (* xx xx)))))
 (>= (+ (+ ?x89 (* (- 1.0) (* xy xy))) (* (* 2.0 oy) xy)) 0.0)))
(assert
 (let ((?x409 (+ (+ (+ (+ (- (/ 1.0 4.0)) R2) y1x) (* (- 1.0) (* oy oy))) (* (- 1.0) (* y1x y1x)))))
 (>= (+ (+ ?x409 (* (- 1.0) (* y1y y1y))) (* (* 2.0 oy) y1y)) 0.0)))
(assert
 (let ((?x50 (+ (+ (+ (+ (- (/ 1.0 4.0)) R2) y2x) (* (- 1.0) (* oy oy))) (* (- 1.0) (* y2x y2x)))))
 (>= (+ (+ ?x50 (* (- 1.0) (* y2y y2y))) (* (* 2.0 oy) y2y)) 0.0)))
(assert
 (let ((?x64 (+ (+ (+ (+ (- (/ 1.0 4.0)) R2) y3x) (* (- 1.0) (* oy oy))) (* (- 1.0) (* y3x y3x)))))
 (>= (+ (+ ?x64 (* (- 1.0) (* y3y y3y))) (* (* 2.0 oy) y3y)) 0.0)))
(assert
 (let ((?x27 (+ (+ (+ (+ (- (/ 1.0 4.0)) R2) y4x) (* (- 1.0) (* oy oy))) (* (- 1.0) (* y4x y4x)))))
 (>= (+ (+ ?x27 (* (- 1.0) (* y4y y4y))) (* (* 2.0 oy) y4y)) 0.0)))
(assert
 (>= (+ (+ (* v1x v1x) (* v1y v1y)) (* (- 1.0) v1x)) 0.0))
(assert
 (>= v1x 0.0))
(assert
 (>= (+ 1.0 (* (- 1.0) v1x)) 0.0))
(assert
 (> R2 0.0))
(assert
 (> rho2 0.0))
(assert
 (let ((?x176 (* (- 1.0) v1y)))
 (let ((?x395 (* ?x176 xy)))
 (> ?x395 0.0))))
(assert
 (let ((?x203 (+ (+ (* v1y v1y) (* (* (- 1.0) v1y) xy)) (* (* (- 1.0) xx) (* v1y v1y)))))
 (> (+ ?x203 (* (* v1x v1y) xy)) 0.0)))
(assert
 (> (+ (* xx (* v1y v1y)) (* (* (* (- 1.0) v1x) v1y) xy)) 0.0))
(assert
 (let ((?x176 (* (- 1.0) v1y)))
 (let ((?x251 (* ?x176 y1y)))
 (> ?x251 0.0))))
(assert
 (let ((?x383 (+ (+ (* v1y v1y) (* (* (- 1.0) v1y) y1y)) (* (* (- 1.0) y1x) (* v1y v1y)))))
 (> (+ ?x383 (* (* v1x v1y) y1y)) 0.0)))
(assert
 (> (+ (* y1x (* v1y v1y)) (* (* (* (- 1.0) v1x) v1y) y1y)) 0.0))
(assert
 (let ((?x176 (* (- 1.0) v1y)))
 (let ((?x367 (* ?x176 y2y)))
 (> ?x367 0.0))))
(assert
 (let ((?x365 (+ (+ (* v1y v1y) (* (* (- 1.0) v1y) y2y)) (* (* (- 1.0) y2x) (* v1y v1y)))))
 (> (+ ?x365 (* (* v1x v1y) y2y)) 0.0)))
(assert
 (> (+ (* y2x (* v1y v1y)) (* (* (* (- 1.0) v1x) v1y) y2y)) 0.0))
(assert
 (let ((?x176 (* (- 1.0) v1y)))
 (let ((?x373 (* ?x176 y3y)))
 (> ?x373 0.0))))
(assert
 (let ((?x267 (+ (+ (* v1y v1y) (* (* (- 1.0) v1y) y3y)) (* (* (- 1.0) y3x) (* v1y v1y)))))
 (> (+ ?x267 (* (* v1x v1y) y3y)) 0.0)))
(assert
 (> (+ (* y3x (* v1y v1y)) (* (* (* (- 1.0) v1x) v1y) y3y)) 0.0))
(assert
 (let ((?x176 (* (- 1.0) v1y)))
 (let ((?x393 (* ?x176 y4y)))
 (> ?x393 0.0))))
(assert
 (let ((?x447 (+ (+ (* v1y v1y) (* (* (- 1.0) v1y) y4y)) (* (* (- 1.0) y4x) (* v1y v1y)))))
 (> (+ ?x447 (* (* v1x v1y) y4y)) 0.0)))
(assert
 (> (+ (* y4x (* v1y v1y)) (* (* (* (- 1.0) v1x) v1y) y4y)) 0.0))
(assert
 (> (+ (* xx y1y) (* (* (- 1.0) xy) y1x)) 0.0))
(assert
 (> (+ (* xx y2y) (* (* (- 1.0) xy) y2x)) 0.0))
(assert
 (> (+ (* xx y3y) (* (* (- 1.0) xy) y3x)) 0.0))
(assert
 (> (+ (* xx y4y) (* (* (- 1.0) xy) y4x)) 0.0))
(assert
 (let ((?x16 (* (- 1.0) xy)))
 (> ?x16 0.0)))
(assert
 (> (+ (* v1y xx) (* (* (- 1.0) v1x) xy)) 0.0))
(assert
 (> (+ (* y1x y2y) (* (* (- 1.0) y1y) y2x)) 0.0))
(assert
 (> (+ (* y1x y3y) (* (* (- 1.0) y1y) y3x)) 0.0))
(assert
 (> (+ (* y1x y4y) (* (* (- 1.0) y1y) y4x)) 0.0))
(assert
 (let ((?x318 (* (- 1.0) y1y)))
 (> ?x318 0.0)))
(assert
 (> (+ (* v1y y1x) (* (* (- 1.0) v1x) y1y)) 0.0))
(assert
 (> (+ (* y2x y3y) (* (* (- 1.0) y2y) y3x)) 0.0))
(assert
 (> (+ (* y2x y4y) (* (* (- 1.0) y2y) y4x)) 0.0))
(assert
 (let ((?x85 (* (- 1.0) y2y)))
 (> ?x85 0.0)))
(assert
 (> (+ (* v1y y2x) (* (* (- 1.0) v1x) y2y)) 0.0))
(assert
 (> (+ (* y3x y4y) (* (* (- 1.0) y3y) y4x)) 0.0))
(assert
 (let ((?x215 (* (- 1.0) y3y)))
 (> ?x215 0.0)))
(assert
 (> (+ (* v1y y3x) (* (* (- 1.0) v1x) y3y)) 0.0))
(assert
 (let ((?x375 (* (- 1.0) y4y)))
 (> ?x375 0.0)))
(assert
 (> (+ (* v1y y4x) (* (* (- 1.0) v1x) y4y)) 0.0))
(assert
 (> v1y 0.0))
(assert
 (let ((?x318 (* (- 1.0) y1y)))
 (let ((?x297 (* ?x318 y2x)))
 (let ((?x16 (* (- 1.0) xy)))
 (let ((?x262 (* ?x16 y1x)))
 (let ((?x141 (+ (+ (+ (* xx y1y) (* xy y2x)) (* y1x y2y)) (* (* (- 1.0) xx) y2y))))
 (> (+ (+ ?x141 ?x262) ?x297) 0.0)))))))
(assert
 (let ((?x318 (* (- 1.0) y1y)))
 (let ((?x263 (* ?x318 y3x)))
 (let ((?x16 (* (- 1.0) xy)))
 (let ((?x262 (* ?x16 y1x)))
 (let ((?x465 (* (- 1.0) xx)))
 (let ((?x315 (* ?x465 y3y)))
 (let ((?x191 (+ (+ (+ (+ (* xx y1y) (* xy y3x)) (* y1x y3y)) ?x315) ?x262)))
 (> (+ ?x191 ?x263) 0.0)))))))))
(assert
 (let ((?x318 (* (- 1.0) y1y)))
 (let ((?x323 (* ?x318 y4x)))
 (let ((?x16 (* (- 1.0) xy)))
 (let ((?x262 (* ?x16 y1x)))
 (let ((?x465 (* (- 1.0) xx)))
 (let ((?x285 (* ?x465 y4y)))
 (let ((?x482 (+ (+ (+ (+ (* xx y1y) (* xy y4x)) (* y1x y4y)) ?x285) ?x262)))
 (> (+ ?x482 ?x323) 0.0)))))))))
(assert
 (let ((?x16 (* (- 1.0) xy)))
 (let ((?x262 (* ?x16 y1x)))
 (> (+ (+ (+ xy (* (- 1.0) y1y)) (* xx y1y)) ?x262) 0.0))))
(assert
 (let ((?x16 (* (- 1.0) xy)))
 (let ((?x262 (* ?x16 y1x)))
 (let ((?x176 (* (- 1.0) v1y)))
 (let ((?x165 (* ?x176 xx)))
 (let ((?x11 (* (- 1.0) v1x)))
 (let ((?x59 (* ?x11 y1y)))
 (let ((?x142 (+ (+ (+ (+ (* v1x xy) (* v1y y1x)) (* xx y1y)) ?x59) ?x165)))
 (> (+ ?x142 ?x262) 0.0)))))))))
(assert
 (let ((?x85 (* (- 1.0) y2y)))
 (let ((?x311 (* ?x85 y3x)))
 (let ((?x16 (* (- 1.0) xy)))
 (let ((?x397 (* ?x16 y2x)))
 (let ((?x465 (* (- 1.0) xx)))
 (let ((?x315 (* ?x465 y3y)))
 (let ((?x329 (+ (+ (+ (+ (* xx y2y) (* xy y3x)) (* y2x y3y)) ?x315) ?x397)))
 (> (+ ?x329 ?x311) 0.0)))))))))
(assert
 (let ((?x85 (* (- 1.0) y2y)))
 (let ((?x94 (* ?x85 y4x)))
 (let ((?x16 (* (- 1.0) xy)))
 (let ((?x397 (* ?x16 y2x)))
 (let ((?x465 (* (- 1.0) xx)))
 (let ((?x285 (* ?x465 y4y)))
 (let ((?x272 (+ (+ (+ (+ (* xx y2y) (* xy y4x)) (* y2x y4y)) ?x285) ?x397)))
 (> (+ ?x272 ?x94) 0.0)))))))))
(assert
 (let ((?x16 (* (- 1.0) xy)))
 (let ((?x397 (* ?x16 y2x)))
 (> (+ (+ (+ xy (* (- 1.0) y2y)) (* xx y2y)) ?x397) 0.0))))
(assert
 (let ((?x16 (* (- 1.0) xy)))
 (let ((?x397 (* ?x16 y2x)))
 (let ((?x176 (* (- 1.0) v1y)))
 (let ((?x165 (* ?x176 xx)))
 (let ((?x11 (* (- 1.0) v1x)))
 (let ((?x333 (* ?x11 y2y)))
 (let ((?x453 (+ (+ (+ (+ (* v1x xy) (* v1y y2x)) (* xx y2y)) ?x333) ?x165)))
 (> (+ ?x453 ?x397) 0.0)))))))))
(assert
 (let ((?x215 (* (- 1.0) y3y)))
 (let ((?x354 (* ?x215 y4x)))
 (let ((?x16 (* (- 1.0) xy)))
 (let ((?x286 (* ?x16 y3x)))
 (let ((?x465 (* (- 1.0) xx)))
 (let ((?x285 (* ?x465 y4y)))
 (let ((?x317 (+ (+ (+ (+ (* xx y3y) (* xy y4x)) (* y3x y4y)) ?x285) ?x286)))
 (> (+ ?x317 ?x354) 0.0)))))))))
(assert
 (let ((?x16 (* (- 1.0) xy)))
 (let ((?x286 (* ?x16 y3x)))
 (> (+ (+ (+ xy (* (- 1.0) y3y)) (* xx y3y)) ?x286) 0.0))))
(assert
 (let ((?x16 (* (- 1.0) xy)))
 (let ((?x286 (* ?x16 y3x)))
 (let ((?x176 (* (- 1.0) v1y)))
 (let ((?x165 (* ?x176 xx)))
 (let ((?x11 (* (- 1.0) v1x)))
 (let ((?x172 (* ?x11 y3y)))
 (let ((?x252 (+ (+ (+ (+ (* v1x xy) (* v1y y3x)) (* xx y3y)) ?x172) ?x165)))
 (> (+ ?x252 ?x286) 0.0)))))))))
(assert
 (let ((?x16 (* (- 1.0) xy)))
 (let ((?x44 (* ?x16 y4x)))
 (> (+ (+ (+ xy (* (- 1.0) y4y)) (* xx y4y)) ?x44) 0.0))))
(assert
 (let ((?x16 (* (- 1.0) xy)))
 (let ((?x44 (* ?x16 y4x)))
 (let ((?x176 (* (- 1.0) v1y)))
 (let ((?x165 (* ?x176 xx)))
 (let ((?x11 (* (- 1.0) v1x)))
 (let ((?x492 (* ?x11 y4y)))
 (let ((?x83 (+ (+ (+ (+ (* v1x xy) (* v1y y4x)) (* xx y4y)) ?x492) ?x165)))
 (> (+ ?x83 ?x44) 0.0)))))))))
(assert
 (let ((?x176 (* (- 1.0) v1y)))
 (let ((?x165 (* ?x176 xx)))
 (> (+ (+ (+ v1y (* (- 1.0) xy)) (* v1x xy)) ?x165) 0.0))))
(assert
 (let ((?x85 (* (- 1.0) y2y)))
 (let ((?x311 (* ?x85 y3x)))
 (let ((?x318 (* (- 1.0) y1y)))
 (let ((?x297 (* ?x318 y2x)))
 (let ((?x291 (+ (+ (+ (* y1x y2y) (* y1y y3x)) (* y2x y3y)) (* (* (- 1.0) y1x) y3y))))
 (> (+ (+ ?x291 ?x297) ?x311) 0.0)))))))
(assert
 (let ((?x85 (* (- 1.0) y2y)))
 (let ((?x94 (* ?x85 y4x)))
 (let ((?x318 (* (- 1.0) y1y)))
 (let ((?x297 (* ?x318 y2x)))
 (let ((?x489 (* (- 1.0) y1x)))
 (let ((?x168 (* ?x489 y4y)))
 (let ((?x353 (+ (+ (+ (+ (* y1x y2y) (* y1y y4x)) (* y2x y4y)) ?x168) ?x297)))
 (> (+ ?x353 ?x94) 0.0)))))))))
(assert
 (let ((?x318 (* (- 1.0) y1y)))
 (let ((?x297 (* ?x318 y2x)))
 (> (+ (+ (+ y1y (* (- 1.0) y2y)) (* y1x y2y)) ?x297) 0.0))))
(assert
 (let ((?x318 (* (- 1.0) y1y)))
 (let ((?x297 (* ?x318 y2x)))
 (let ((?x176 (* (- 1.0) v1y)))
 (let ((?x487 (* ?x176 y1x)))
 (let ((?x11 (* (- 1.0) v1x)))
 (let ((?x333 (* ?x11 y2y)))
 (let ((?x456 (+ (+ (+ (+ (* v1x y1y) (* v1y y2x)) (* y1x y2y)) ?x333) ?x487)))
 (> (+ ?x456 ?x297) 0.0)))))))))
(assert
 (let ((?x215 (* (- 1.0) y3y)))
 (let ((?x354 (* ?x215 y4x)))
 (let ((?x318 (* (- 1.0) y1y)))
 (let ((?x263 (* ?x318 y3x)))
 (let ((?x489 (* (- 1.0) y1x)))
 (let ((?x168 (* ?x489 y4y)))
 (let ((?x200 (+ (+ (+ (+ (* y1x y3y) (* y1y y4x)) (* y3x y4y)) ?x168) ?x263)))
 (> (+ ?x200 ?x354) 0.0)))))))))
(assert
 (let ((?x318 (* (- 1.0) y1y)))
 (let ((?x263 (* ?x318 y3x)))
 (> (+ (+ (+ y1y (* (- 1.0) y3y)) (* y1x y3y)) ?x263) 0.0))))
(assert
 (let ((?x318 (* (- 1.0) y1y)))
 (let ((?x263 (* ?x318 y3x)))
 (let ((?x176 (* (- 1.0) v1y)))
 (let ((?x487 (* ?x176 y1x)))
 (let ((?x11 (* (- 1.0) v1x)))
 (let ((?x172 (* ?x11 y3y)))
 (let ((?x307 (+ (+ (+ (+ (* v1x y1y) (* v1y y3x)) (* y1x y3y)) ?x172) ?x487)))
 (> (+ ?x307 ?x263) 0.0)))))))))
(assert
 (let ((?x318 (* (- 1.0) y1y)))
 (let ((?x323 (* ?x318 y4x)))
 (> (+ (+ (+ y1y (* (- 1.0) y4y)) (* y1x y4y)) ?x323) 0.0))))
(assert
 (let ((?x318 (* (- 1.0) y1y)))
 (let ((?x323 (* ?x318 y4x)))
 (let ((?x176 (* (- 1.0) v1y)))
 (let ((?x487 (* ?x176 y1x)))
 (let ((?x11 (* (- 1.0) v1x)))
 (let ((?x492 (* ?x11 y4y)))
 (let ((?x158 (+ (+ (+ (+ (* v1x y1y) (* v1y y4x)) (* y1x y4y)) ?x492) ?x487)))
 (> (+ ?x158 ?x323) 0.0)))))))))
(assert
 (let ((?x176 (* (- 1.0) v1y)))
 (let ((?x487 (* ?x176 y1x)))
 (> (+ (+ (+ v1y (* (- 1.0) y1y)) (* v1x y1y)) ?x487) 0.0))))
(assert
 (let ((?x215 (* (- 1.0) y3y)))
 (let ((?x354 (* ?x215 y4x)))
 (let ((?x85 (* (- 1.0) y2y)))
 (let ((?x311 (* ?x85 y3x)))
 (let ((?x470 (+ (+ (+ (* y2x y3y) (* y2y y4x)) (* y3x y4y)) (* (* (- 1.0) y2x) y4y))))
 (> (+ (+ ?x470 ?x311) ?x354) 0.0)))))))
(assert
 (let ((?x85 (* (- 1.0) y2y)))
 (let ((?x311 (* ?x85 y3x)))
 (> (+ (+ (+ y2y (* (- 1.0) y3y)) (* y2x y3y)) ?x311) 0.0))))
(assert
 (let ((?x85 (* (- 1.0) y2y)))
 (let ((?x311 (* ?x85 y3x)))
 (let ((?x176 (* (- 1.0) v1y)))
 (let ((?x122 (* ?x176 y2x)))
 (let ((?x11 (* (- 1.0) v1x)))
 (let ((?x172 (* ?x11 y3y)))
 (let ((?x273 (+ (+ (+ (+ (* v1x y2y) (* v1y y3x)) (* y2x y3y)) ?x172) ?x122)))
 (> (+ ?x273 ?x311) 0.0)))))))))
(assert
 (let ((?x85 (* (- 1.0) y2y)))
 (let ((?x94 (* ?x85 y4x)))
 (> (+ (+ (+ y2y (* (- 1.0) y4y)) (* y2x y4y)) ?x94) 0.0))))
(assert
 (let ((?x85 (* (- 1.0) y2y)))
 (let ((?x94 (* ?x85 y4x)))
 (let ((?x176 (* (- 1.0) v1y)))
 (let ((?x122 (* ?x176 y2x)))
 (let ((?x11 (* (- 1.0) v1x)))
 (let ((?x492 (* ?x11 y4y)))
 (let ((?x467 (+ (+ (+ (+ (* v1x y2y) (* v1y y4x)) (* y2x y4y)) ?x492) ?x122)))
 (> (+ ?x467 ?x94) 0.0)))))))))
(assert
 (let ((?x176 (* (- 1.0) v1y)))
 (let ((?x122 (* ?x176 y2x)))
 (> (+ (+ (+ v1y (* (- 1.0) y2y)) (* v1x y2y)) ?x122) 0.0))))
(assert
 (let ((?x215 (* (- 1.0) y3y)))
 (let ((?x354 (* ?x215 y4x)))
 (> (+ (+ (+ y3y (* (- 1.0) y4y)) (* y3x y4y)) ?x354) 0.0))))
(assert
 (let ((?x215 (* (- 1.0) y3y)))
 (let ((?x354 (* ?x215 y4x)))
 (let ((?x176 (* (- 1.0) v1y)))
 (let ((?x98 (* ?x176 y3x)))
 (let ((?x11 (* (- 1.0) v1x)))
 (let ((?x492 (* ?x11 y4y)))
 (let ((?x43 (+ (+ (+ (+ (* v1x y3y) (* v1y y4x)) (* y3x y4y)) ?x492) ?x98)))
 (> (+ ?x43 ?x354) 0.0)))))))))
(assert
 (let ((?x176 (* (- 1.0) v1y)))
 (let ((?x98 (* ?x176 y3x)))
 (> (+ (+ (+ v1y (* (- 1.0) y3y)) (* v1x y3y)) ?x98) 0.0))))
(assert
 (let ((?x402 (+ (+ (+ v1y (* (- 1.0) y4y)) (* v1x y4y)) (* (* (- 1.0) v1y) y4x))))
(> ?x402 0.0)))
(check-sat)
